### Parameters for Equilibration ### 

### Parameters for MOF ### 

mass 1 55.845000000
mass 2 32.065000000
mass 3 12.010700000
mass 4 1.007940000


bond_coeff 1 192.938150 2.244314
bond_coeff 2 462.655054 1.379256
bond_coeff 3 357.440381 1.081418
bond_coeff 4 320.755144 1.749010

angle_coeff 1 fourier 131.427607 0.343737 0.374972 0.281246
angle_coeff 2 fourier 106.220186 0.343737 0.374972 0.281246
angle_coeff 3 cosine/periodic 111.297508 -1 3
angle_coeff 4 cosine/periodic 57.289016 -1 3
angle_coeff 5 cosine/periodic 105.943006 -1 3
angle_coeff 6 fourier 115.321348 0.343737 0.374972 0.281246

dihedral_coeff 1 3.368555 -1 2
dihedral_coeff 2 1.976424 1 2

improper_coeff 1 2.000000 1.000000 -1.000000 0.000000 0

### Parameters for Molecule ### 

mass 5 14.006700000
mass 6 12.010700000
mass 7 1.007940000


bond_coeff 5 528.634538 1.451071
bond_coeff 6 331.069389 1.109401

angle_coeff 7 fourier 260.869388 0.317506 0.313225 0.272502
angle_coeff 8 fourier 169.780468 0.343737 0.374972 0.281246
angle_coeff 9 fourier 75.498766 0.343737 0.374972 0.281246

dihedral_coeff 3 0.054250 1 3


pair_coeff 1 1 0.013 2.5943 1 12.5
pair_coeff 1 2 0.0596825 3.09454 1 12.5
pair_coeff 1 3 0.0369459 3.01257 1 12.5
pair_coeff 1 4 0.0239165 2.58272 1 12.5
pair_coeff 1 5 0.02995 2.92749 1 12.5
pair_coeff 1 6 0.0369459 3.01257 1 12.5
pair_coeff 1 7 0.0239165 2.58272 1 12.5
pair_coeff 2 2 0.274 3.59478 1 12.5
pair_coeff 2 3 0.169617 3.51281 1 12.5
pair_coeff 2 4 0.1098 3.08296 1 12.5
pair_coeff 2 5 0.137499 3.42773 1 12.5
pair_coeff 2 6 0.169617 3.51281 1 12.5
pair_coeff 2 7 0.1098 3.08296 1 12.5
pair_coeff 3 3 0.105 3.43085 1 12.5
pair_coeff 3 4 0.0679706 3.00099 1 12.5
pair_coeff 3 5 0.0851176 3.34577 1 12.5
pair_coeff 3 6 0.105 3.43085 1 12.5
pair_coeff 3 7 0.0679706 3.00099 1 12.5
pair_coeff 4 4 0.044 2.57113 1 12.5
pair_coeff 4 5 0.0550999 2.91591 1 12.5
pair_coeff 4 6 0.0679706 3.00099 1 12.5
pair_coeff 4 7 0.044 2.57113 1 12.5
pair_coeff 5 5 0.069 3.26069 1 12.5
pair_coeff 5 6 0.0851176 3.34577 1 12.5
pair_coeff 5 7 0.0550999 2.91591 1 12.5
pair_coeff 6 6 0.105 3.43085 1 12.5
pair_coeff 6 7 0.0679706 3.00099 1 12.5
pair_coeff 7 7 0.044 2.57113 1 12.5
